c description: Random 3-CNF over 17 variables and 72 clauses
c generator: CNFgen (0.9.2)
c copyright: (C) 2012-2022 Massimo Lauria <massimo.lauria@uniroma1.it>
c url: https://massimolauria.net/cnfgen
c command line: cnfgen --output CNF_4.28/17_bit_72_597.cnf randkcnf 3 17 72
c
p cnf 17 72
9 12 17 0
-8 -10 -12 0
1 -5 8 0
-3 4 -15 0
1 6 17 0
-3 -7 -16 0
2 -6 -17 0
-1 -9 -17 0
5 -12 -13 0
12 -14 -17 0
5 -6 -11 0
5 -6 -7 0
1 12 -15 0
-7 13 16 0
7 10 -17 0
10 13 -17 0
-4 -10 11 0
-3 9 -12 0
12 -14 15 0
4 5 6 0
-5 12 14 0
3 9 -12 0
-8 -13 -16 0
4 9 16 0
9 11 -16 0
2 -3 11 0
3 -13 17 0
-3 -12 16 0
7 10 -12 0
5 8 11 0
-6 -15 17 0
-1 -14 17 0
1 2 5 0
1 5 -12 0
-3 -7 16 0
-6 -11 -14 0
4 8 -14 0
3 4 -9 0
3 -6 15 0
-5 -8 -9 0
1 3 -5 0
-2 10 -14 0
-2 4 -15 0
-1 5 -15 0
7 -9 -16 0
-7 -11 15 0
8 -14 -16 0
4 -8 16 0
-2 -4 -16 0
8 -9 14 0
2 4 17 0
-1 -8 15 0
-9 -11 13 0
9 -13 15 0
6 15 17 0
3 7 -10 0
3 10 11 0
-6 7 -13 0
-9 11 16 0
5 7 16 0
-7 -13 17 0
-7 12 13 0
-3 7 -16 0
4 -5 16 0
9 -13 17 0
5 -8 -10 0
2 -8 -11 0
9 10 -11 0
2 15 17 0
5 -9 -15 0
2 4 8 0
4 -8 14 0
